============================[ Problem Statistics ]=============================|                                                                             ||  Number of variables:          4242                                         ||  Number of clauses:            9669                                         ||  Parse time:                   0.07 s                                       ||                                                                             |============================[ Search Statistics ]==============================| Conflicts |          ORIGINAL         |          LEARNT          | Progress ||           |    Vars  Clauses Literals |    Limit  Clauses Lit/Cl |          |==============================================================================================================================================================restarts              : 1conflicts             : 46             (434 /sec)decisions             : 133            (0.00 % random) (1255 /sec)propagations          : 8117           (76575 /sec)conflict literals     : 1922           (95.84 % deleted)CPU time              : 0.106 sSATISFIABLE